mod/ex1221.sol

Options
3
2
1
0
5
0
5
5
1.1180339887499948
1.3103707162527616
0
1
1
